CMD:
./solvers/bin/cadical --plain --no-reduce -t 1600 ./data/cnfs//6s43/6s43.64.cnf

c --- [ banner ] -------------------------------------------------------------
c 
c CaDiCaL SAT Solver
c Copyright (c) 2016-2024
c A. Biere, M. Fleury, N. Froleyks, K. Fazekas, F. Pollitt, T. Faller
c JKU Linz, University of Freiburg, TU Wien
c 
c Version 2.1.3 5296d3d2a9bf48c154ab2acb5e44625776d821bf
c g++ (Gentoo 12.3.1_p20230526 p2) 12.3.1 20230526 -Wall -Wextra -O3 -DNDEBUG
c Sat Aug 9 07:26:21 PDT 2025 Linux cedar2.int.cedar.computecanada.ca 5.14.0-362.24.2.el9_3.x86_64 x86_64
c 
c --- [ limit ] --------------------------------------------------------------
c 
c setting time limit to 1600 seconds real time (due to '-t 1600')
c 
c --- [ parsing input ] ------------------------------------------------------
c 
c reading DIMACS file from './data/cnfs//6s43/6s43.64.cnf'
c opening file to read './data/cnfs//6s43/6s43.64.cnf'
c found 'p cnf 484549 1445720' header
c parsed 1445720 clauses in 0.23 seconds process time
c 
c --- [ options ] ------------------------------------------------------------
c 
c   --compact=false                (different from default 'true')
c   --decompose=false              (different from default 'true')
c   --deduplicate=false            (different from default 'true')
c   --elim=false                   (different from default 'true')
c   --probe=false                  (different from default 'true')
c   --reduce=false                 (different from default 'true')
c   --subsume=false                (different from default 'true')
c   --ternary=false                (different from default 'true')
c   --transred=false               (different from default 'true')
c   --vivify=false                 (different from default 'true')
c 
c --- [ solving ] ------------------------------------------------------------
c 
c time measured in process time since initialization
c 
c  seconds   reductions  redundant   irredundant
c          MB    restarts       trail        variables
c           level   conflicts       glue           remaining
c 
c *  0.23 219  0 0   0    0    0  0% 0 1379682 449058 93%
c {  0.30 223  0 0   0    0    0  0% 0 1379682 449058 93%
c i  0.30 223 17 0   0    3    2  8% 1 1379682 449056 93%
c i  0.41 224 122 0  13  280  268 14% 2 1379682 449012 93%
c i  0.41 224 119 0  15  293  280 14% 3 1379682 449009 93%
c i  0.46 225 113 0  24  324  310 14% 3 1379682 448927 93%
c i  0.47 225 112 0  26  331  316 14% 3 1379682 448926 93%
c i  0.49 225 107 0  33  358  339 14% 3 1379682 448925 93%
c i  0.49 225 106 0  35  365  345 14% 3 1379682 448924 93%
c i  0.50 225 103 0  37  379  349 13% 3 1379682 448923 93%
c i  0.55 225 100 0  46  420  382 14% 3 1379682 448879 93%
c i  0.61 225 92 0  57  498  452 14% 3 1379682 448816 93%
c i  0.61 225 92 0  57  499  452 14% 3 1379682 448789 93%
c i  0.61 225 92 0  57  503  453 14% 3 1379682 448657 93%
c i  0.65 225 90 0  62  541  486 15% 3 1379682 448634 93%
c i  0.72 225 85 0  75  593  532 15% 3 1379682 448573 93%
c i  0.72 225 85 0  76  595  533 15% 3 1379682 448514 93%
c i  0.80 226 82 0  90  653  588 15% 3 1379682 447785 92%
c i  0.94 226 75 0 114  791  713 15% 3 1379682 447703 92%
c i  0.99 226 74 0 121  830  746 15% 3 1379682 447684 92%
c 
c  seconds   reductions  redundant   irredundant
c          MB    restarts       trail        variables
c           level   conflicts       glue           remaining
c 
c i  1.01 226 72 0 124  864  770 15% 3 1379682 447683 92%
c i  1.01 226 72 0 124  874  777 15% 3 1379682 447682 92%
c i  1.01 226 71 0 124  882  780 14% 3 1379682 447679 92%
c }  1.07 226 71 0 133 1004  882 14% 3 1379682 447679 92%
c [  1.07 226  0 0 133 1004  882  0% 0 1379682 447679 92%
c O  1.09 226 58 0 133 1005  883 14% 2 1379682 447679 92%
c i  1.49 227 835 0 134 2869 2630 51% 22 1379682 447678 92%
c ]  1.52 227 798 0 134 3004 2756 48% 21 1379682 447678 92%
c {  1.52 227 71 0 134 3004 2756 14% 3 1379682 447678 92%
c F  1.53 227 72 0 135 3008 2760 15% 3 1379682 447678 92%
c i  1.66 227 71 0 150 3099 2835 15% 3 1379682 447578 92%
c i  1.67 227 72 0 150 3101 2836 15% 3 1379682 447517 92%
c i  1.67 227 72 0 150 3104 2838 15% 3 1379682 447383 92%
c i  1.67 227 73 0 150 3111 2844 15% 3 1379682 447288 92%
c i  1.70 228 71 0 160 3255 2963 15% 3 1379682 447263 92%
c i  1.71 228 71 0 160 3269 2975 15% 3 1379682 447134 92%
c i  1.71 228 71 0 160 3278 2981 15% 3 1379682 447133 92%
c i  1.71 228 71 0 160 3285 2985 15% 3 1379682 446992 92%
c i  1.71 228 70 0 160 3297 2995 15% 3 1379682 446989 92%
c i  1.71 228 70 0 160 3298 2995 15% 3 1379682 446984 92%
c 
c  seconds   reductions  redundant   irredundant
c          MB    restarts       trail        variables
c           level   conflicts       glue           remaining
c 
c i  1.71 228 70 0 160 3301 2996 15% 3 1379682 446974 92%
c i  1.71 228 70 0 160 3302 2996 15% 3 1379682 446966 92%
c i  1.71 228 70 0 160 3309 2998 15% 3 1379682 446962 92%
c i  1.71 228 69 0 160 3321 3008 15% 3 1379682 446958 92%
... skipped 806 lines ...
c i 82.25 273 52 0 10386 120883 59570 20% 6 1162911 404772 84%
c i 82.25 273 52 0 10387 120884 59570 20% 6 1162911 402841 83%
c i 82.27 273 52 0 10390 120922 59607 20% 6 1162911 400851 83%
c i 82.50 273 52 0 10407 121267 59893 20% 6 1162911 400766 83%
c i 82.63 273 51 0 10411 121573 60146 20% 6 1162911 397510 82%
c i 82.96 273 51 0 10441 122129 60624 20% 6 1162911 397509 82%
c i 83.84 273 50 0 10578 123280 61627 20% 6 1162911 397500 82%
c i 83.94 273 50 0 10596 123411 61714 20% 6 1162911 394316 81%
c i 84.00 273 50 0 10596 123555 61852 20% 6 1162911 394309 81%
c i 84.12 273 50 0 10605 123738 61986 20% 6 1162911 394190 81%
c 
c  seconds   reductions       redundant   irredundant
c          MB     restarts           trail        variables
c           level      conflicts         glue           remaining
c 
c i 84.12 273 50 0 10605 123739 61986 20% 6 1162911 394183 81%
c i 84.12 273 50 0 10605 123755 61999 20% 6 1162911 394138 81%
c i 84.57 273 50 0 10622 124381 62577 20% 6 1162911 394131 81%
c i 84.62 273 50 0 10622 124476 62661 20% 6 1162911 394098 81%
c i 84.64 273 50 0 10622 124543 62725 20% 6 1162911 394095 81%
c i 84.71 273 50 0 10622 124652 62817 20% 6 1162911 394088 81%
c i 84.78 273 50 0 10627 124755 62901 20% 6 1162911 385522 80%
c i 85.05 273 50 0 10632 125310 63405 20% 6 1162911 385519 80%
c i 85.20 273 50 0 10641 125527 63585 20% 6 1162911 385518 80%
c i 85.60 273 49 0 10672 126231 64214 21% 6 1162911 384588 79%
c i 85.62 273 49 0 10673 126242 64220 21% 6 1162911 383123 79%
c i 85.77 273 49 0 10673 126537 64487 21% 6 1162911 383116 79%
c i 86.04 273 49 0 10682 126887 64773 21% 6 1162911 383115 79%
c } 86.11 273 49 0 10685 127013 64890 21% 6 1162911 383115 79%
c [ 86.11 273 111 0 10685 127013 64890 23% 12 1162911 383115 79%
c i 86.28 273 111 0 10686 127245 65100 23% 12 1162911 383062 79%
c i 87.05 273 109 0 10686 128038 65755 23% 12 1162911 368940 76%
c i 87.07 273 109 0 10686 128079 65780 24% 12 1162911 368935 76%
c i 87.07 273 109 0 10686 128087 65779 24% 12 1162911 368863 76%
c i 87.07 273 109 0 10686 128092 65783 24% 12 1162911 368652 76%
c 
c  seconds    reductions       redundant    irredundant
c          MB      restarts           trail         variables
c            level      conflicts         glue            remaining
c 
c i 87.07 273 109 0 10686 128094 65783 24% 12 1162911 368359 76%
c i 87.07 273 109 0 10686 128095 65783 24% 12 1162911 367984 76%
c i 87.07 273 109 0 10686 128097 65784 24% 12 1162911 366651 76%
c i 87.07 273 109 0 10686 128098 65784 24% 12 1162911 366358 76%
c ] 87.07 273 109 0 10686 128102 65785 24% 12 1162911 365633 75%
c 0 87.07 273 109 0 10686 128102 65785 24% 12 1162911 365633 75%
c 
c --- [ result ] -------------------------------------------------------------
c 
s UNSATISFIABLE
c 
c --- [ run-time profiling ] -------------------------------------------------
c 
c process time taken by individual solving procedures
c (percentage relative to process time for solving)
c 
c        86.84  100.00% search
c        69.32   79.82% unstable
c        15.55   17.91% stable
c         1.91    2.20% walk
c         0.23    0.27% parse
c         0.06    0.07% lucky
c         0.00    0.00% simplify
c   =================================
c        86.84   99.73% solve
c 
c last line shows process time for solving
c (percentage relative to total process time)
c 
c --- [ statistics ] ---------------------------------------------------------
c 
c chronological:             49826        38.90 %  of conflicts
c conflicts:                128102      1475.16    per second
c decisions:                735124      8465.32    per second
c fixed:                    118916        24.54 %  of all variables
c learned:                  122388        95.54 %  per conflict
c learned_lits:            4840315       100.00 %  learned literals
c minimized:                     0         0.00 %  learned literals
c shrunken:                 902571        18.65 %  learned literals
c minishrunken:             901334        18.62 %  learned literals
c otfs:                       1366         1.07 %  of conflict
c propagations:          863742660         9.95 M  per second
c rephased:                     15      8540.13    interval
c restarts:                  10686        11.99    interval
c stabilizing:                   4        33.63 %  of conflicts
c subsumed:                   8147         0.54 %  of all clauses
c strengthened:               1340         0.09 %  of all clauses
c walked:                        4     32025.50    interval
c 
c seconds are measured in process time for solving
c 
c --- [ resources ] ----------------------------------------------------------
c 
c total process time since initialization:        87.07    seconds
c total real time since initialization:           87.40    seconds
c maximum resident set size of process:          338.16    MB
c 
c --- [ shutting down ] ------------------------------------------------------
c 
c exit 20
